c User generated cnf file
p cnf 10 52
3 5 -1 0 
-3 8 7 0 
-7 3 10 0 
-10 5 3 0 
6 -9 7 0 
3 -6 2 0 
1 10 -1 0 
1 8 -1 0 
6 -4 10 0 
7 -3 9 0 
-7 2 8 0 
7 1 -4 0 
-9 7 1 0 
-2 10 7 0 
-1 9 8 0 
-8 1 4 0 
-7 3 2 0 
8 -9 2 0 
-4 10 7 0 
-5 3 2 0 
1 10 -3 0 
2 -3 10 0 
8 7 -8 0 
-7 4 4 0 
6 1 -7 0 
2 7 -1 0 
5 -9 2 0 
-6 3 2 0 
2 2 -9 0 
9 2 -5 0 
-2 7 4 0 
3 -10 4 0 
-6 2 3 0 
-1 1 5 0 
6 6 -3 0 
3 -8 6 0 
7 -10 8 0 
7 1 -7 0 
7 -2 9 0 
-3 4 5 0 
10 -2 10 0 
4 -2 2 0 
3 -10 10 0 
-7 1 9 0 
2 6 -7 0 
-6 3 10 0 
7 6 -1 0 
-7 7 1 0 
4 1 -4 0 
-9 1 1 0 
2 6 -10 0 
-7 6 1 0 
